mixintcount/benchmarks/random_v2l/3_3_125.smt2
(set-logic QF_LIA)
(set-info :ran/ran2.smt2)
(set-info :smt-lib-version 2.0)
(declare-fun x1 () Int)
(declare-fun x2 () Int)
(declare-fun x3 () Int)
(assert (<= (+ (* (- 6) x1) (* 4 x2) (* (- 10) x3) ) (- 85)))
(assert (<= (+ (* (- 1) x1) (* 1 x2) (* (- 1) x3) ) (- 61)))
(assert (<= (+ (* (- 3) x1) (* 7 x2) (* 2 x3) ) (- 34)))
(assert (<= (+ (* (- 8) x1) (* (- 8) x2) (* (- 1) x3) ) 85))
(assert (<= (+ (* (- 9) x1) (* (- 6) x2) (* 8 x3) ) 86))
(assert (<= (+ (* 8 x1) (* 7 x2) (* 7 x3) ) (- 97)))
(assert (<= (+ (* 1 x1) (* 0 x2) (* 0 x3) ) 125))
(assert (<= (+ (* (- 1) x1) (* 0 x2) (* 0 x3) ) 125))
(assert (<= (+ (* 0 x1) (* 1 x2) (* 0 x3) ) 125))
(assert (<= (+ (* 0 x1) (* (- 1) x2) (* 0 x3) ) 125))
(assert (<= (+ (* 0 x1) (* 0 x2) (* 1 x3) ) 125))
(assert (<= (+ (* 0 x1) (* 0 x2) (* (- 1) x3) ) 125))
