mixintcount/benchmarks/random_v2l/3_3_125.in
12 5
#	x1	x2	x3;		0 = Real; 1 = Integer
	1	1	1
1	-6	4	-10	-85
1	-1	1	-1	-61
1	-3	7	2	-34
1	-8	-8	-1	85
1	-9	-6	8	86
1	8	7	7	-97
1	1	0	0	125
1	-1	0	0	125
1	0	1	0	125
1	0	-1	0	125
1	0	0	1	125
1	0	0	-1	125
